(set-info :smt-lib-version 2.6)
(set-logic UF)
(set-info :source |Benchmarks from the paper: "Extending Sledgehammer with SMT Solvers" by Jasmin Blanchette, Sascha Bohme, and Lawrence C. Paulson, CADE 2011.  Translated to SMT2 by Andrew Reynolds and Morgan Deters.|)
(set-info :category "industrial")
(set-info :status unsat)
(declare-sort S1 0)
(declare-sort S2 0)
(declare-sort S3 0)
(declare-sort S4 0)
(declare-sort S5 0)
(declare-sort S6 0)
(declare-sort S7 0)
(declare-sort S8 0)
(declare-sort S9 0)
(declare-sort S10 0)
(declare-sort S11 0)
(declare-sort S12 0)
(declare-sort S13 0)
(declare-sort S14 0)
(declare-sort S15 0)
(declare-sort S16 0)
(declare-sort S17 0)
(declare-sort S18 0)
(declare-sort S19 0)
(declare-sort S20 0)
(declare-sort S21 0)
(declare-sort S22 0)
(declare-sort S23 0)
(declare-sort S24 0)
(declare-sort S25 0)
(declare-sort S26 0)
(declare-sort S27 0)
(declare-sort S28 0)
(declare-sort S29 0)
(declare-sort S30 0)
(declare-sort S31 0)
(declare-sort S32 0)
(declare-sort S33 0)
(declare-sort S34 0)
(declare-sort S35 0)
(declare-sort S36 0)
(declare-sort S37 0)
(declare-sort S38 0)
(declare-sort S39 0)
(declare-sort S40 0)
(declare-sort S41 0)
(declare-sort S42 0)
(declare-sort S43 0)
(declare-sort S44 0)
(declare-sort S45 0)
(declare-sort S46 0)
(declare-sort S47 0)
(declare-fun f1 () S1)
(declare-fun f2 () S1)
(declare-fun f3 () S2)
(declare-fun f4 (S3 S2) S1)
(declare-fun f5 (S4 S2) S3)
(declare-fun f6 (S5) S4)
(declare-fun f7 () S5)
(declare-fun f8 () S2)
(declare-fun f9 () S5)
(declare-fun f10 (S6 S5) S5)
(declare-fun f11 (S7 S5) S6)
(declare-fun f12 () S7)
(declare-fun f13 (S8 S3) S7)
(declare-fun f14 () S8)
(declare-fun f15 (S9 S3) S6)
(declare-fun f16 () S9)
(declare-fun f17 (S11 S10) S3)
(declare-fun f18 (S12 S2) S11)
(declare-fun f19 (S5) S12)
(declare-fun f20 (S5) S1)
(declare-fun f21 (S15 S14) S6)
(declare-fun f22 (S16 S13) S15)
(declare-fun f23 () S16)
(declare-fun f24 (S18 S14) S5)
(declare-fun f25 (S19 S17) S18)
(declare-fun f26 () S19)
(declare-fun f27 (S21 S20) S18)
(declare-fun f28 (S22 S17) S21)
(declare-fun f29 () S22)
(declare-fun f30 (S23 S10) S2)
(declare-fun f31 (S24 S17) S23)
(declare-fun f32 (S25 S2) S24)
(declare-fun f33 () S25)
(declare-fun f34 (S14 S2) S10)
(declare-fun f35 (S26 S20) S5)
(declare-fun f36 () S26)
(declare-fun f37 (S27 S13) S17)
(declare-fun f38 () S27)
(declare-fun f39 (S28 S13) S10)
(declare-fun f40 (S29 S2) S28)
(declare-fun f41 () S29)
(declare-fun f42 (S30 S20) S31)
(declare-fun f43 () S30)
(declare-fun f44 () S31)
(declare-fun f45 (S32 S31) S5)
(declare-fun f46 () S32)
(declare-fun f47 (S33 S10) S10)
(declare-fun f48 () S33)
(declare-fun f49 (S35 S34) S17)
(declare-fun f50 () S35)
(declare-fun f51 (S36 S28) S2)
(declare-fun f52 (S37 S2) S36)
(declare-fun f53 () S37)
(declare-fun f54 () S28)
(declare-fun f55 () S13)
(declare-fun f56 () S13)
(declare-fun f57 (S38 S5) S31)
(declare-fun f58 () S38)
(declare-fun f59 () S1)
(declare-fun f60 (S31) S1)
(declare-fun f61 () S10)
(declare-fun f62 (S39 S17) S10)
(declare-fun f63 () S39)
(declare-fun f64 (S40 S10) S1)
(declare-fun f65 () S39)
(declare-fun f66 (S41 S5) S10)
(declare-fun f67 () S41)
(declare-fun f68 (S42 S10) S33)
(declare-fun f69 () S42)
(declare-fun f70 (S43 S31) S10)
(declare-fun f71 (S44 S41) S43)
(declare-fun f72 () S44)
(declare-fun f73 (S46 S45) S45)
(declare-fun f74 (S47 S45) S46)
(declare-fun f75 () S47)
(declare-fun f76 () S45)
(declare-fun f77 () S33)
(declare-fun f78 () S33)
(declare-fun f79 () S43)
(declare-fun f80 () S41)
(assert (not (= f1 f2)))
(assert (not false))
(assert (forall ((?v0 S2)) (= ?v0 f3)))
(assert (forall ((?v0 S2)) (not (= (f4 (f5 (f6 f7) f8) ?v0) f1))))
(assert (forall ((?v0 S2)) (=> (forall ((?v1 S2)) (= ?v1 ?v0)) false)))
(assert (forall ((?v0 S5) (?v1 S2) (?v2 S2) (?v3 S2)) (let ((?v_0 (f5 (f6 ?v0) ?v1))) (=> (= (f4 ?v_0 ?v2) f1) (=> (= (f4 ?v_0 ?v3) f1) (= ?v3 ?v2))))))
(assert (forall ((?v0 S2)) (= (f4 (f5 (f6 f9) ?v0) ?v0) f1)))
(assert (forall ((?v0 S2) (?v1 S2)) (=> (= (f4 (f5 (f6 f9) ?v0) ?v1) f1) (=> (=> (= ?v1 ?v0) false) false))))
(assert (forall ((?v0 S5) (?v1 S2) (?v2 S2) (?v3 S5) (?v4 S2)) (=> (= (f4 (f5 (f6 ?v0) ?v1) ?v2) f1) (=> (= (f4 (f5 (f6 ?v3) ?v2) ?v4) f1) (= (f4 (f5 (f6 (f10 (f11 f12 ?v0) ?v3)) ?v1) ?v4) f1)))))
(assert (forall ((?v0 S3) (?v1 S2) (?v2 S5) (?v3 S2) (?v4 S5)) (=> (not (= (f4 ?v0 ?v1) f1)) (=> (= (f4 (f5 (f6 ?v2) ?v1) ?v3) f1) (= (f4 (f5 (f6 (f10 (f11 (f13 f14 ?v0) ?v4) ?v2)) ?v1) ?v3) f1)))))
(assert (forall ((?v0 S3) (?v1 S2) (?v2 S5) (?v3 S2) (?v4 S5)) (=> (= (f4 ?v0 ?v1) f1) (=> (= (f4 (f5 (f6 ?v2) ?v1) ?v3) f1) (= (f4 (f5 (f6 (f10 (f11 (f13 f14 ?v0) ?v2) ?v4)) ?v1) ?v3) f1)))))
(assert (forall ((?v0 S3) (?v1 S5) (?v2 S5) (?v3 S2) (?v4 S2)) (let ((?v_0 (= (f4 ?v0 ?v3) f1))) (=> (= (f4 (f5 (f6 (f10 (f11 (f13 f14 ?v0) ?v1) ?v2)) ?v3) ?v4) f1) (=> (=> ?v_0 (=> (= (f4 (f5 (f6 ?v1) ?v3) ?v4) f1) false)) (=> (=> (not ?v_0) (=> (= (f4 (f5 (f6 ?v2) ?v3) ?v4) f1) false)) false))))))
(assert (forall ((?v0 S3) (?v1 S2) (?v2 S5)) (=> (not (= (f4 ?v0 ?v1) f1)) (= (f4 (f5 (f6 (f10 (f15 f16 ?v0) ?v2)) ?v1) ?v1) f1))))
(assert (forall ((?v0 S3) (?v1 S2) (?v2 S5) (?v3 S2) (?v4 S2)) (let ((?v_0 (f6 (f10 (f15 f16 ?v0) ?v2)))) (=> (= (f4 ?v0 ?v1) f1) (=> (= (f4 (f5 (f6 ?v2) ?v1) ?v3) f1) (=> (= (f4 (f5 ?v_0 ?v3) ?v4) f1) (= (f4 (f5 ?v_0 ?v1) ?v4) f1)))))))
(assert (forall ((?v0 S5) (?v1 S5) (?v2 S2) (?v3 S2)) (=> (= (f4 (f5 (f6 (f10 (f11 f12 ?v0) ?v1)) ?v2) ?v3) f1) (=> (forall ((?v4 S2)) (=> (= (f4 (f5 (f6 ?v0) ?v2) ?v4) f1) (=> (= (f4 (f5 (f6 ?v1) ?v4) ?v3) f1) false))) false))))
(assert (forall ((?v0 S5) (?v1 S2) (?v2 S2)) (= (= (f4 (f5 (f6 ?v0) ?v1) ?v2) f1) (exists ((?v3 S10)) (= (f4 (f17 (f18 (f19 ?v0) ?v1) ?v3) ?v2) f1)))))
(assert (forall ((?v0 S5) (?v1 S2) (?v2 S10) (?v3 S2)) (=> (= (f4 (f17 (f18 (f19 ?v0) ?v1) ?v2) ?v3) f1) (= (f4 (f5 (f6 ?v0) ?v1) ?v3) f1))))
(assert (forall ((?v0 S3) (?v1 S2) (?v2 S5) (?v3 S10)) (=> (not (= (f4 ?v0 ?v1) f1)) (= (f4 (f17 (f18 (f19 (f10 (f15 f16 ?v0) ?v2)) ?v1) ?v3) ?v1) f1))))
(assert (forall ((?v0 S3) (?v1 S2) (?v2 S5) (?v3 S10) (?v4 S2) (?v5 S2)) (let ((?v_0 (f19 (f10 (f15 f16 ?v0) ?v2)))) (=> (= (f4 ?v0 ?v1) f1) (=> (= (f4 (f17 (f18 (f19 ?v2) ?v1) ?v3) ?v4) f1) (=> (= (f4 (f17 (f18 ?v_0 ?v4) ?v3) ?v5) f1) (= (f4 (f17 (f18 ?v_0 ?v1) ?v3) ?v5) f1)))))))
(assert (forall ((?v0 S3) (?v1 S2) (?v2 S5) (?v3 S10) (?v4 S2) (?v5 S5)) (=> (not (= (f4 ?v0 ?v1) f1)) (=> (= (f4 (f17 (f18 (f19 ?v2) ?v1) ?v3) ?v4) f1) (= (f4 (f17 (f18 (f19 (f10 (f11 (f13 f14 ?v0) ?v5) ?v2)) ?v1) ?v3) ?v4) f1)))))
(assert (forall ((?v0 S3) (?v1 S2) (?v2 S5) (?v3 S10) (?v4 S2) (?v5 S5)) (=> (= (f4 ?v0 ?v1) f1) (=> (= (f4 (f17 (f18 (f19 ?v2) ?v1) ?v3) ?v4) f1) (= (f4 (f17 (f18 (f19 (f10 (f11 (f13 f14 ?v0) ?v2) ?v5)) ?v1) ?v3) ?v4) f1)))))
(assert (forall ((?v0 S3) (?v1 S5) (?v2 S5) (?v3 S2) (?v4 S10) (?v5 S2)) (let ((?v_0 (= (f4 ?v0 ?v3) f1))) (=> (= (f4 (f17 (f18 (f19 (f10 (f11 (f13 f14 ?v0) ?v1) ?v2)) ?v3) ?v4) ?v5) f1) (=> (=> ?v_0 (=> (= (f4 (f17 (f18 (f19 ?v1) ?v3) ?v4) ?v5) f1) false)) (=> (=> (not ?v_0) (=> (= (f4 (f17 (f18 (f19 ?v2) ?v3) ?v4) ?v5) f1) false)) false))))))
(assert (forall ((?v0 S5) (?v1 S2) (?v2 S10) (?v3 S2) (?v4 S5) (?v5 S2)) (=> (= (f4 (f17 (f18 (f19 ?v0) ?v1) ?v2) ?v3) f1) (=> (= (f4 (f17 (f18 (f19 ?v4) ?v3) ?v2) ?v5) f1) (= (f4 (f17 (f18 (f19 (f10 (f11 f12 ?v0) ?v4)) ?v1) ?v2) ?v5) f1)))))
(assert (forall ((?v0 S2) (?v1 S10)) (= (f4 (f17 (f18 (f19 f9) ?v0) ?v1) ?v0) f1)))
(assert (forall ((?v0 S2) (?v1 S10) (?v2 S2)) (=> (= (f4 (f17 (f18 (f19 f9) ?v0) ?v1) ?v2) f1) (=> (=> (= ?v2 ?v0) false) false))))
(assert (forall ((?v0 S5) (?v1 S5) (?v2 S2) (?v3 S10) (?v4 S2)) (=> (= (f4 (f17 (f18 (f19 (f10 (f11 f12 ?v0) ?v1)) ?v2) ?v3) ?v4) f1) (=> (forall ((?v5 S2)) (=> (= (f4 (f17 (f18 (f19 ?v0) ?v2) ?v3) ?v5) f1) (=> (= (f4 (f17 (f18 (f19 ?v1) ?v5) ?v3) ?v4) f1) false))) false))))
(assert (forall ((?v0 S3) (?v1 S5) (?v2 S2) (?v3 S2)) (=> (= (f4 (f5 (f6 (f10 (f15 f16 ?v0) ?v1)) ?v2) ?v3) f1) (=> (=> (= ?v3 ?v2) (=> (not (= (f4 ?v0 ?v2) f1)) false)) (=> (forall ((?v4 S2)) (=> (= (f4 ?v0 ?v2) f1) (=> (= (f4 (f5 (f6 ?v1) ?v2) ?v4) f1) (=> (= (f4 (f5 (f6 (f10 (f15 f16 ?v0) ?v1)) ?v4) ?v3) f1) false)))) false)))))
(assert (forall ((?v0 S3) (?v1 S5) (?v2 S2) (?v3 S10) (?v4 S2)) (=> (= (f4 (f17 (f18 (f19 (f10 (f15 f16 ?v0) ?v1)) ?v2) ?v3) ?v4) f1) (=> (=> (= ?v4 ?v2) (=> (not (= (f4 ?v0 ?v2) f1)) false)) (=> (forall ((?v5 S2)) (=> (= (f4 ?v0 ?v2) f1) (=> (= (f4 (f17 (f18 (f19 ?v1) ?v2) ?v3) ?v5) f1) (=> (= (f4 (f17 (f18 (f19 (f10 (f15 f16 ?v0) ?v1)) ?v5) ?v3) ?v4) f1) false)))) false)))))
(assert (forall ((?v0 S5) (?v1 S2) (?v2 S2)) (=> (= (f4 (f5 (f6 ?v0) ?v1) ?v2) f1) (exists ((?v3 S10)) (= (f4 (f17 (f18 (f19 ?v0) ?v1) ?v3) ?v2) f1)))))
(assert (forall ((?v0 S5) (?v1 S5)) (not (= f9 (f10 (f11 f12 ?v0) ?v1)))))
(assert (forall ((?v0 S5) (?v1 S5)) (not (= (f10 (f11 f12 ?v0) ?v1) f9))))
(assert (forall ((?v0 S3) (?v1 S5) (?v2 S5)) (not (= f9 (f10 (f11 (f13 f14 ?v0) ?v1) ?v2)))))
(assert (forall ((?v0 S3) (?v1 S5) (?v2 S5)) (not (= (f10 (f11 (f13 f14 ?v0) ?v1) ?v2) f9))))
(assert (forall ((?v0 S5) (?v1 S5) (?v2 S3) (?v3 S5) (?v4 S5)) (not (= (f10 (f11 f12 ?v0) ?v1) (f10 (f11 (f13 f14 ?v2) ?v3) ?v4)))))
(assert (forall ((?v0 S3) (?v1 S5) (?v2 S5) (?v3 S5) (?v4 S5)) (not (= (f10 (f11 (f13 f14 ?v0) ?v1) ?v2) (f10 (f11 f12 ?v3) ?v4)))))
(assert (forall ((?v0 S3) (?v1 S5)) (not (= f9 (f10 (f15 f16 ?v0) ?v1)))))
(assert (forall ((?v0 S3) (?v1 S5) (?v2 S3) (?v3 S5)) (= (= (f10 (f15 f16 ?v0) ?v1) (f10 (f15 f16 ?v2) ?v3)) (and (= ?v0 ?v2) (= ?v1 ?v3)))))
(assert (forall ((?v0 S3) (?v1 S5) (?v2 S5) (?v3 S3) (?v4 S5) (?v5 S5)) (= (= (f10 (f11 (f13 f14 ?v0) ?v1) ?v2) (f10 (f11 (f13 f14 ?v3) ?v4) ?v5)) (and (= ?v0 ?v3) (and (= ?v1 ?v4) (= ?v2 ?v5))))))
(assert (forall ((?v0 S5) (?v1 S5) (?v2 S5) (?v3 S5)) (= (= (f10 (f11 f12 ?v0) ?v1) (f10 (f11 f12 ?v2) ?v3)) (and (= ?v0 ?v2) (= ?v1 ?v3)))))
(assert (forall ((?v0 S3) (?v1 S5) (?v2 S5) (?v3 S3) (?v4 S5)) (not (= (f10 (f11 (f13 f14 ?v0) ?v1) ?v2) (f10 (f15 f16 ?v3) ?v4)))))
(assert (forall ((?v0 S3) (?v1 S5) (?v2 S3) (?v3 S5) (?v4 S5)) (not (= (f10 (f15 f16 ?v0) ?v1) (f10 (f11 (f13 f14 ?v2) ?v3) ?v4)))))
(assert (forall ((?v0 S3) (?v1 S5) (?v2 S5) (?v3 S5)) (not (= (f10 (f15 f16 ?v0) ?v1) (f10 (f11 f12 ?v2) ?v3)))))
(assert (forall ((?v0 S5) (?v1 S5) (?v2 S3) (?v3 S5)) (not (= (f10 (f11 f12 ?v0) ?v1) (f10 (f15 f16 ?v2) ?v3)))))
(assert (forall ((?v0 S3) (?v1 S5)) (not (= (f10 (f15 f16 ?v0) ?v1) f9))))
(assert (forall ((?v0 S5) (?v1 S2) (?v2 S10) (?v3 S2) (?v4 S5) (?v5 S2) (?v6 S10) (?v7 S2)) (=> (= (f4 (f17 (f18 (f19 ?v0) ?v1) ?v2) ?v3) f1) (=> (= (f4 (f17 (f18 (f19 ?v4) ?v5) ?v6) ?v7) f1) (exists ((?v8 S10)) (and (= (f4 (f17 (f18 (f19 ?v0) ?v1) ?v8) ?v3) f1) (= (f4 (f17 (f18 (f19 ?v4) ?v5) ?v8) ?v7) f1)))))))
(assert (=> (= (f20 f9) f1) (=> false false)))
(assert (forall ((?v0 S5) (?v1 S5)) (=> (= (f20 (f10 (f11 f12 ?v0) ?v1)) f1) (=> (=> (= (f20 ?v0) f1) (=> (= (f20 ?v1) f1) false)) false))))
(assert (forall ((?v0 S3) (?v1 S5) (?v2 S5)) (=> (= (f20 (f10 (f11 (f13 f14 ?v0) ?v1) ?v2)) f1) (=> (=> (= (f20 ?v1) f1) (=> (= (f20 ?v2) f1) false)) false))))
(assert (forall ((?v0 S3) (?v1 S5)) (=> (= (f20 (f10 (f15 f16 ?v0) ?v1)) f1) (=> (=> (= (f20 ?v1) f1) false) false))))
(assert (forall ((?v0 S5) (?v1 S3)) (=> (= (f20 ?v0) f1) (= (f20 (f10 (f15 f16 ?v1) ?v0)) f1))))
(assert (forall ((?v0 S5) (?v1 S5) (?v2 S3)) (=> (= (f20 ?v0) f1) (=> (= (f20 ?v1) f1) (= (f20 (f10 (f11 (f13 f14 ?v2) ?v0) ?v1)) f1)))))
(assert (forall ((?v0 S5) (?v1 S5)) (=> (= (f20 ?v0) f1) (=> (= (f20 ?v1) f1) (= (f20 (f10 (f11 f12 ?v0) ?v1)) f1)))))
(assert (= (f20 f9) f1))
(assert (forall ((?v0 S13) (?v1 S14) (?v2 S5)) (=> (= (f20 (f10 (f21 (f22 f23 ?v0) ?v1) ?v2)) f1) (=> (=> (= (f20 ?v2) f1) false) false))))
(assert (forall ((?v0 S17) (?v1 S14)) (=> (= (f20 (f24 (f25 f26 ?v0) ?v1)) f1) (=> false false))))
(assert (forall ((?v0 S17) (?v1 S14) (?v2 S17) (?v3 S20) (?v4 S14)) (not (= (f24 (f25 f26 ?v0) ?v1) (f24 (f27 (f28 f29 ?v2) ?v3) ?v4)))))
(assert (forall ((?v0 S17) (?v1 S14) (?v2 S13) (?v3 S14) (?v4 S5)) (not (= (f24 (f25 f26 ?v0) ?v1) (f10 (f21 (f22 f23 ?v2) ?v3) ?v4)))))
(assert (forall ((?v0 S17) (?v1 S20) (?v2 S14) (?v3 S17) (?v4 S14)) (not (= (f24 (f27 (f28 f29 ?v0) ?v1) ?v2) (f24 (f25 f26 ?v3) ?v4)))))
(assert (forall ((?v0 S13) (?v1 S14) (?v2 S5) (?v3 S17) (?v4 S14)) (not (= (f10 (f21 (f22 f23 ?v0) ?v1) ?v2) (f24 (f25 f26 ?v3) ?v4)))))
(assert (forall ((?v0 S17) (?v1 S20) (?v2 S14) (?v3 S13) (?v4 S14) (?v5 S5)) (not (= (f24 (f27 (f28 f29 ?v0) ?v1) ?v2) (f10 (f21 (f22 f23 ?v3) ?v4) ?v5)))))
(assert (forall ((?v0 S13) (?v1 S14) (?v2 S5) (?v3 S17) (?v4 S20) (?v5 S14)) (not (= (f10 (f21 (f22 f23 ?v0) ?v1) ?v2) (f24 (f27 (f28 f29 ?v3) ?v4) ?v5)))))
(assert (forall ((?v0 S17) (?v1 S14) (?v2 S17) (?v3 S14)) (= (= (f24 (f25 f26 ?v0) ?v1) (f24 (f25 f26 ?v2) ?v3)) (and (= ?v0 ?v2) (= ?v1 ?v3)))))
(assert (forall ((?v0 S17) (?v1 S20) (?v2 S14) (?v3 S17) (?v4 S20) (?v5 S14)) (= (= (f24 (f27 (f28 f29 ?v0) ?v1) ?v2) (f24 (f27 (f28 f29 ?v3) ?v4) ?v5)) (and (= ?v0 ?v3) (and (= ?v1 ?v4) (= ?v2 ?v5))))))
(assert (forall ((?v0 S13) (?v1 S14) (?v2 S5) (?v3 S13) (?v4 S14) (?v5 S5)) (= (= (f10 (f21 (f22 f23 ?v0) ?v1) ?v2) (f10 (f21 (f22 f23 ?v3) ?v4) ?v5)) (and (= ?v0 ?v3) (and (= ?v1 ?v4) (= ?v2 ?v5))))))
(assert (forall ((?v0 S17) (?v1 S14)) (= (f20 (f24 (f25 f26 ?v0) ?v1)) f1)))
(assert (forall ((?v0 S5) (?v1 S13) (?v2 S14)) (=> (= (f20 ?v0) f1) (= (f20 (f10 (f21 (f22 f23 ?v1) ?v2) ?v0)) f1))))
(assert (forall ((?v0 S13) (?v1 S14) (?v2 S5) (?v3 S3) (?v4 S5)) (not (= (f10 (f21 (f22 f23 ?v0) ?v1) ?v2) (f10 (f15 f16 ?v3) ?v4)))))
(assert (forall ((?v0 S17) (?v1 S20) (?v2 S14) (?v3 S3) (?v4 S5)) (not (= (f24 (f27 (f28 f29 ?v0) ?v1) ?v2) (f10 (f15 f16 ?v3) ?v4)))))
(assert (forall ((?v0 S3) (?v1 S5) (?v2 S13) (?v3 S14) (?v4 S5)) (not (= (f10 (f15 f16 ?v0) ?v1) (f10 (f21 (f22 f23 ?v2) ?v3) ?v4)))))
(assert (forall ((?v0 S3) (?v1 S5) (?v2 S17) (?v3 S20) (?v4 S14)) (not (= (f10 (f15 f16 ?v0) ?v1) (f24 (f27 (f28 f29 ?v2) ?v3) ?v4)))))
(assert (forall ((?v0 S3) (?v1 S5) (?v2 S17) (?v3 S14)) (not (= (f10 (f15 f16 ?v0) ?v1) (f24 (f25 f26 ?v2) ?v3)))))
(assert (forall ((?v0 S17) (?v1 S14) (?v2 S3) (?v3 S5)) (not (= (f24 (f25 f26 ?v0) ?v1) (f10 (f15 f16 ?v2) ?v3)))))
(assert (forall ((?v0 S13) (?v1 S14) (?v2 S5) (?v3 S3) (?v4 S5) (?v5 S5)) (not (= (f10 (f21 (f22 f23 ?v0) ?v1) ?v2) (f10 (f11 (f13 f14 ?v3) ?v4) ?v5)))))
(assert (forall ((?v0 S3) (?v1 S5) (?v2 S5) (?v3 S13) (?v4 S14) (?v5 S5)) (not (= (f10 (f11 (f13 f14 ?v0) ?v1) ?v2) (f10 (f21 (f22 f23 ?v3) ?v4) ?v5)))))
(assert (forall ((?v0 S3) (?v1 S5) (?v2 S5) (?v3 S17) (?v4 S20) (?v5 S14)) (not (= (f10 (f11 (f13 f14 ?v0) ?v1) ?v2) (f24 (f27 (f28 f29 ?v3) ?v4) ?v5)))))
(assert (forall ((?v0 S17) (?v1 S20) (?v2 S14) (?v3 S3) (?v4 S5) (?v5 S5)) (not (= (f24 (f27 (f28 f29 ?v0) ?v1) ?v2) (f10 (f11 (f13 f14 ?v3) ?v4) ?v5)))))
(assert (forall ((?v0 S3) (?v1 S5) (?v2 S5) (?v3 S17) (?v4 S14)) (not (= (f10 (f11 (f13 f14 ?v0) ?v1) ?v2) (f24 (f25 f26 ?v3) ?v4)))))
(assert (forall ((?v0 S17) (?v1 S14) (?v2 S3) (?v3 S5) (?v4 S5)) (not (= (f24 (f25 f26 ?v0) ?v1) (f10 (f11 (f13 f14 ?v2) ?v3) ?v4)))))
(assert (forall ((?v0 S13) (?v1 S14) (?v2 S5) (?v3 S5) (?v4 S5)) (not (= (f10 (f21 (f22 f23 ?v0) ?v1) ?v2) (f10 (f11 f12 ?v3) ?v4)))))
(assert (forall ((?v0 S17) (?v1 S20) (?v2 S14) (?v3 S5) (?v4 S5)) (not (= (f24 (f27 (f28 f29 ?v0) ?v1) ?v2) (f10 (f11 f12 ?v3) ?v4)))))
(assert (forall ((?v0 S5) (?v1 S5) (?v2 S13) (?v3 S14) (?v4 S5)) (not (= (f10 (f11 f12 ?v0) ?v1) (f10 (f21 (f22 f23 ?v2) ?v3) ?v4)))))
(assert (forall ((?v0 S5) (?v1 S5) (?v2 S17) (?v3 S20) (?v4 S14)) (not (= (f10 (f11 f12 ?v0) ?v1) (f24 (f27 (f28 f29 ?v2) ?v3) ?v4)))))
(assert (forall ((?v0 S5) (?v1 S5) (?v2 S17) (?v3 S14)) (not (= (f10 (f11 f12 ?v0) ?v1) (f24 (f25 f26 ?v2) ?v3)))))
(assert (forall ((?v0 S17) (?v1 S14) (?v2 S5) (?v3 S5)) (not (= (f24 (f25 f26 ?v0) ?v1) (f10 (f11 f12 ?v2) ?v3)))))
(assert (forall ((?v0 S13) (?v1 S14) (?v2 S5)) (not (= (f10 (f21 (f22 f23 ?v0) ?v1) ?v2) f9))))
(assert (forall ((?v0 S17) (?v1 S20) (?v2 S14)) (not (= (f24 (f27 (f28 f29 ?v0) ?v1) ?v2) f9))))
(assert (forall ((?v0 S17) (?v1 S14)) (not (= (f24 (f25 f26 ?v0) ?v1) f9))))
(assert (forall ((?v0 S13) (?v1 S14) (?v2 S5)) (not (= f9 (f10 (f21 (f22 f23 ?v0) ?v1) ?v2)))))
(assert (forall ((?v0 S17) (?v1 S20) (?v2 S14)) (not (= f9 (f24 (f27 (f28 f29 ?v0) ?v1) ?v2)))))
(assert (forall ((?v0 S17) (?v1 S14)) (not (= f9 (f24 (f25 f26 ?v0) ?v1)))))
(assert (forall ((?v0 S17) (?v1 S14) (?v2 S2)) (= (f4 (f5 (f6 (f24 (f25 f26 ?v0) ?v1)) ?v2) (f30 (f31 (f32 f33 ?v2) ?v0) (f34 ?v1 ?v2))) f1)))
(assert (forall ((?v0 S17) (?v1 S14) (?v2 S2) (?v3 S2)) (=> (= (f4 (f5 (f6 (f24 (f25 f26 ?v0) ?v1)) ?v2) ?v3) f1) (=> (=> (= ?v3 (f30 (f31 (f32 f33 ?v2) ?v0) (f34 ?v1 ?v2))) false) false))))
(assert (forall ((?v0 S17) (?v1 S14) (?v2 S2) (?v3 S10) (?v4 S2)) (=> (= (f4 (f17 (f18 (f19 (f24 (f25 f26 ?v0) ?v1)) ?v2) ?v3) ?v4) f1) (=> (=> (= ?v4 (f30 (f31 (f32 f33 ?v2) ?v0) (f34 ?v1 ?v2))) false) false))))
(assert (forall ((?v0 S17) (?v1 S14) (?v2 S2) (?v3 S10)) (= (f4 (f17 (f18 (f19 (f24 (f25 f26 ?v0) ?v1)) ?v2) ?v3) (f30 (f31 (f32 f33 ?v2) ?v0) (f34 ?v1 ?v2))) f1)))
(assert (forall ((?v0 S17) (?v1 S20) (?v2 S14)) (=> (= (f20 (f24 (f27 (f28 f29 ?v0) ?v1) ?v2)) f1) (=> (=> (= (f20 (f35 f36 ?v1)) f1) false) false))))
(assert (forall ((?v0 S5)) (=> (=> (= ?v0 f9) false) (=> (forall ((?v1 S17) (?v2 S14)) (=> (= ?v0 (f24 (f25 f26 ?v1) ?v2)) false)) (=> (forall ((?v1 S13) (?v2 S14) (?v3 S5)) (=> (= ?v0 (f10 (f21 (f22 f23 ?v1) ?v2) ?v3)) false)) (=> (forall ((?v1 S5) (?v2 S5)) (=> (= ?v0 (f10 (f11 f12 ?v1) ?v2)) false)) (=> (forall ((?v1 S3) (?v2 S5) (?v3 S5)) (=> (= ?v0 (f10 (f11 (f13 f14 ?v1) ?v2) ?v3)) false)) (=> (forall ((?v1 S3) (?v2 S5)) (=> (= ?v0 (f10 (f15 f16 ?v1) ?v2)) false)) (=> (forall ((?v1 S20)) (=> (= ?v0 (f35 f36 ?v1)) false)) (=> (forall ((?v1 S17) (?v2 S20) (?v3 S14)) (=> (= ?v0 (f24 (f27 (f28 f29 ?v1) ?v2) ?v3)) false)) false))))))))))
(assert (forall ((?v0 S20) (?v1 S17) (?v2 S14)) (=> (= (f20 (f35 f36 ?v0)) f1) (= (f20 (f24 (f27 (f28 f29 ?v1) ?v0) ?v2)) f1))))
(assert (forall ((?v0 S20) (?v1 S20)) (= (= (f35 f36 ?v0) (f35 f36 ?v1)) (= ?v0 ?v1))))
(assert (forall ((?v0 S20) (?v1 S3) (?v2 S5)) (not (= (f35 f36 ?v0) (f10 (f15 f16 ?v1) ?v2)))))
(assert (forall ((?v0 S3) (?v1 S5) (?v2 S20)) (not (= (f10 (f15 f16 ?v0) ?v1) (f35 f36 ?v2)))))
(assert (forall ((?v0 S20) (?v1 S3) (?v2 S5) (?v3 S5)) (not (= (f35 f36 ?v0) (f10 (f11 (f13 f14 ?v1) ?v2) ?v3)))))
(assert (forall ((?v0 S3) (?v1 S5) (?v2 S5) (?v3 S20)) (not (= (f10 (f11 (f13 f14 ?v0) ?v1) ?v2) (f35 f36 ?v3)))))
(assert (forall ((?v0 S20) (?v1 S5) (?v2 S5)) (not (= (f35 f36 ?v0) (f10 (f11 f12 ?v1) ?v2)))))
(assert (forall ((?v0 S5) (?v1 S5) (?v2 S20)) (not (= (f10 (f11 f12 ?v0) ?v1) (f35 f36 ?v2)))))
(assert (forall ((?v0 S13) (?v1 S14) (?v2 S5) (?v3 S20)) (not (= (f10 (f21 (f22 f23 ?v0) ?v1) ?v2) (f35 f36 ?v3)))))
(assert (forall ((?v0 S17) (?v1 S20) (?v2 S14) (?v3 S20)) (not (= (f24 (f27 (f28 f29 ?v0) ?v1) ?v2) (f35 f36 ?v3)))))
(assert (forall ((?v0 S17) (?v1 S14) (?v2 S20)) (not (= (f24 (f25 f26 ?v0) ?v1) (f35 f36 ?v2)))))
(assert (forall ((?v0 S20) (?v1 S13) (?v2 S14) (?v3 S5)) (not (= (f35 f36 ?v0) (f10 (f21 (f22 f23 ?v1) ?v2) ?v3)))))
(assert (forall ((?v0 S20) (?v1 S17) (?v2 S20) (?v3 S14)) (not (= (f35 f36 ?v0) (f24 (f27 (f28 f29 ?v1) ?v2) ?v3)))))
(assert (forall ((?v0 S20) (?v1 S17) (?v2 S14)) (not (= (f35 f36 ?v0) (f24 (f25 f26 ?v1) ?v2)))))
(assert (forall ((?v0 S20)) (not (= f9 (f35 f36 ?v0)))))
(assert (forall ((?v0 S20)) (not (= (f35 f36 ?v0) f9))))
(assert (forall ((?v0 S5) (?v1 S2) (?v2 S13) (?v3 S14) (?v4 S2)) (let ((?v_0 (f37 f38 ?v2))) (=> (= (f4 (f5 (f6 ?v0) (f30 (f31 (f32 f33 ?v1) ?v_0) (f34 ?v3 ?v1))) ?v4) f1) (= (f4 (f5 (f6 (f10 (f21 (f22 f23 ?v2) ?v3) ?v0)) ?v1) (f30 (f31 (f32 f33 ?v4) ?v_0) (f39 (f40 f41 ?v1) ?v2))) f1)))))
(assert (forall ((?v0 S5) (?v1 S2) (?v2 S13) (?v3 S14) (?v4 S10) (?v5 S2)) (let ((?v_0 (f37 f38 ?v2))) (=> (= (f4 (f17 (f18 (f19 ?v0) (f30 (f31 (f32 f33 ?v1) ?v_0) (f34 ?v3 ?v1))) ?v4) ?v5) f1) (= (f4 (f17 (f18 (f19 (f10 (f21 (f22 f23 ?v2) ?v3) ?v0)) ?v1) ?v4) (f30 (f31 (f32 f33 ?v5) ?v_0) (f39 (f40 f41 ?v1) ?v2))) f1)))))
(assert (forall ((?v0 S5)) (= (= (f20 ?v0) f1) (or (= ?v0 f9) (or (exists ((?v1 S17) (?v2 S14)) (= ?v0 (f24 (f25 f26 ?v1) ?v2))) (or (exists ((?v1 S5) (?v2 S13) (?v3 S14)) (and (= ?v0 (f10 (f21 (f22 f23 ?v2) ?v3) ?v1)) (= (f20 ?v1) f1))) (or (exists ((?v1 S5) (?v2 S5)) (and (= ?v0 (f10 (f11 f12 ?v1) ?v2)) (and (= (f20 ?v1) f1) (= (f20 ?v2) f1)))) (or (exists ((?v1 S5) (?v2 S5) (?v3 S3)) (and (= ?v0 (f10 (f11 (f13 f14 ?v3) ?v1) ?v2)) (and (= (f20 ?v1) f1) (= (f20 ?v2) f1)))) (or (exists ((?v1 S5) (?v2 S3)) (and (= ?v0 (f10 (f15 f16 ?v2) ?v1)) (= (f20 ?v1) f1))) (or (exists ((?v1 S20)) (and (= ?v0 (f35 f36 ?v1)) (not (= (f42 f43 ?v1) f44)))) (exists ((?v1 S20) (?v2 S17) (?v3 S14)) (and (= ?v0 (f24 (f27 (f28 f29 ?v2) ?v1) ?v3)) (= (f20 (f35 f36 ?v1)) f1)))))))))))))
(assert (forall ((?v0 S13) (?v1 S14) (?v2 S5) (?v3 S2) (?v4 S2)) (=> (= (f4 (f5 (f6 (f10 (f21 (f22 f23 ?v0) ?v1) ?v2)) ?v3) ?v4) f1) (=> (forall ((?v5 S2)) (let ((?v_0 (f37 f38 ?v0))) (=> (= ?v4 (f30 (f31 (f32 f33 ?v5) ?v_0) (f39 (f40 f41 ?v3) ?v0))) (=> (= (f4 (f5 (f6 ?v2) (f30 (f31 (f32 f33 ?v3) ?v_0) (f34 ?v1 ?v3))) ?v5) f1) false)))) false))))
(assert (forall ((?v0 S13) (?v1 S14) (?v2 S5) (?v3 S2) (?v4 S10) (?v5 S2)) (=> (= (f4 (f17 (f18 (f19 (f10 (f21 (f22 f23 ?v0) ?v1) ?v2)) ?v3) ?v4) ?v5) f1) (=> (forall ((?v6 S2)) (let ((?v_0 (f37 f38 ?v0))) (=> (= ?v5 (f30 (f31 (f32 f33 ?v6) ?v_0) (f39 (f40 f41 ?v3) ?v0))) (=> (= (f4 (f17 (f18 (f19 ?v2) (f30 (f31 (f32 f33 ?v3) ?v_0) (f34 ?v1 ?v3))) ?v4) ?v6) f1) false)))) false))))
(assert (forall ((?v0 S13) (?v1 S13)) (= (= (f37 f38 ?v0) (f37 f38 ?v1)) (= ?v0 ?v1))))
(assert (forall ((?v0 S20)) (=> (not (= (f42 f43 ?v0) f44)) (= (f20 (f35 f36 ?v0)) f1))))
(assert (forall ((?v0 S20) (?v1 S2) (?v2 S2)) (=> (= (f4 (f5 (f6 (f35 f36 ?v0)) ?v1) ?v2) f1) (=> (=> (= (f4 (f5 (f6 (f45 f46 (f42 f43 ?v0))) ?v1) ?v2) f1) false) false))))
(assert (forall ((?v0 S20) (?v1 S2) (?v2 S2)) (=> (= (f4 (f5 (f6 (f45 f46 (f42 f43 ?v0))) ?v1) ?v2) f1) (= (f4 (f5 (f6 (f35 f36 ?v0)) ?v1) ?v2) f1))))
(assert (forall ((?v0 S20) (?v1 S2) (?v2 S10) (?v3 S2)) (=> (= (f4 (f17 (f18 (f19 (f45 f46 (f42 f43 ?v0))) ?v1) ?v2) ?v3) f1) (= (f4 (f17 (f18 (f19 (f35 f36 ?v0)) ?v1) (f47 f48 ?v2)) ?v3) f1))))
(assert (forall ((?v0 S20) (?v1 S2) (?v2 S10) (?v3 S2)) (=> (= (f4 (f17 (f18 (f19 (f35 f36 ?v0)) ?v1) ?v2) ?v3) f1) (=> (forall ((?v4 S10)) (=> (= ?v2 (f47 f48 ?v4)) (=> (= (f4 (f17 (f18 (f19 (f45 f46 (f42 f43 ?v0))) ?v1) ?v4) ?v3) f1) false))) false))))
(assert (forall ((?v0 S34) (?v1 S34)) (= (= (f49 f50 ?v0) (f49 f50 ?v1)) (= ?v0 ?v1))))
(assert (forall ((?v0 S5) (?v1 S2) (?v2 S10) (?v3 S2)) (let ((?v_0 (f18 (f19 ?v0) ?v1))) (=> (= (f4 (f17 ?v_0 ?v2) ?v3) f1) (= (f4 (f17 ?v_0 (f47 f48 ?v2)) ?v3) f1)))))
(assert (forall ((?v0 S34) (?v1 S13)) (not (= (f49 f50 ?v0) (f37 f38 ?v1)))))
(assert (forall ((?v0 S13) (?v1 S34)) (not (= (f37 f38 ?v0) (f49 f50 ?v1)))))
(assert (forall ((?v0 S17)) (=> (forall ((?v1 S34)) (=> (= ?v0 (f49 f50 ?v1)) false)) (=> (forall ((?v1 S13)) (=> (= ?v0 (f37 f38 ?v1)) false)) false))))
(assert (forall ((?v0 S20) (?v1 S2) (?v2 S14) (?v3 S2) (?v4 S17)) (=> (= (f4 (f5 (f6 (f35 f36 ?v0)) (f30 (f31 (f32 f33 (f51 (f52 f53 ?v1) f54)) (f37 f38 f55)) (f34 ?v2 ?v1))) ?v3) f1) (= (f4 (f5 (f6 (f24 (f27 (f28 f29 ?v4) ?v0) ?v2)) ?v1) (f30 (f31 (f32 f33 (f51 (f52 f53 ?v3) (f40 f41 ?v1))) ?v4) (f39 (f40 f41 ?v3) f56))) f1))))
(assert (forall ((?v0 S20) (?v1 S2) (?v2 S14) (?v3 S10) (?v4 S2) (?v5 S17)) (=> (= (f4 (f17 (f18 (f19 (f35 f36 ?v0)) (f30 (f31 (f32 f33 (f51 (f52 f53 ?v1) f54)) (f37 f38 f55)) (f34 ?v2 ?v1))) ?v3) ?v4) f1) (= (f4 (f17 (f18 (f19 (f24 (f27 (f28 f29 ?v5) ?v0) ?v2)) ?v1) ?v3) (f30 (f31 (f32 f33 (f51 (f52 f53 ?v4) (f40 f41 ?v1))) ?v5) (f39 (f40 f41 ?v4) f56))) f1))))
(assert (forall ((?v0 S17) (?v1 S20) (?v2 S14) (?v3 S2) (?v4 S2)) (=> (= (f4 (f5 (f6 (f24 (f27 (f28 f29 ?v0) ?v1) ?v2)) ?v3) ?v4) f1) (=> (forall ((?v5 S2)) (=> (= ?v4 (f30 (f31 (f32 f33 (f51 (f52 f53 ?v5) (f40 f41 ?v3))) ?v0) (f39 (f40 f41 ?v5) f56))) (=> (= (f4 (f5 (f6 (f35 f36 ?v1)) (f30 (f31 (f32 f33 (f51 (f52 f53 ?v3) f54)) (f37 f38 f55)) (f34 ?v2 ?v3))) ?v5) f1) false))) false))))
(assert (forall ((?v0 S17) (?v1 S20) (?v2 S14) (?v3 S2) (?v4 S10) (?v5 S2)) (=> (= (f4 (f17 (f18 (f19 (f24 (f27 (f28 f29 ?v0) ?v1) ?v2)) ?v3) ?v4) ?v5) f1) (=> (forall ((?v6 S2)) (=> (= ?v5 (f30 (f31 (f32 f33 (f51 (f52 f53 ?v6) (f40 f41 ?v3))) ?v0) (f39 (f40 f41 ?v6) f56))) (=> (= (f4 (f17 (f18 (f19 (f35 f36 ?v1)) (f30 (f31 (f32 f33 (f51 (f52 f53 ?v3) f54)) (f37 f38 f55)) (f34 ?v2 ?v3))) ?v4) ?v6) f1) false))) false))))
(assert (forall ((?v0 S10)) (not (= ?v0 (f47 f48 ?v0)))))
(assert (forall ((?v0 S10) (?v1 S10)) (=> (= (f47 f48 ?v0) (f47 f48 ?v1)) (= ?v0 ?v1))))
(assert (forall ((?v0 S10) (?v1 S10)) (= (= (f47 f48 ?v0) (f47 f48 ?v1)) (= ?v0 ?v1))))
(assert (forall ((?v0 S10)) (not (= (f47 f48 ?v0) ?v0))))
(assert (forall ((?v0 S20)) (=> (= (f20 (f35 f36 ?v0)) f1) (=> (forall ((?v1 S5)) (=> (= (f42 f43 ?v0) (f57 f58 ?v1)) false)) false))))
(assert (forall ((?v0 S20) (?v1 S5)) (=> (= f59 f1) (=> (= (f42 f43 ?v0) (f57 f58 ?v1)) (= (f20 ?v1) f1)))))
(assert (forall ((?v0 S5)) (= (f45 f46 (f57 f58 ?v0)) ?v0)))
(assert (forall ((?v0 S5) (?v1 S5)) (= (= (f57 f58 ?v0) (f57 f58 ?v1)) (= ?v0 ?v1))))
(assert (forall ((?v0 S5)) (not (= f44 (f57 f58 ?v0)))))
(assert (forall ((?v0 S5)) (not (= (f57 f58 ?v0) f44))))
(assert (forall ((?v0 S31)) (= (forall ((?v1 S5)) (not (= ?v0 (f57 f58 ?v1)))) (= ?v0 f44))))
(assert (forall ((?v0 S31)) (= (not (= ?v0 f44)) (exists ((?v1 S5)) (= ?v0 (f57 f58 ?v1))))))
(assert (forall ((?v0 S31)) (=> (=> (= ?v0 f44) false) (=> (forall ((?v1 S5)) (=> (= ?v0 (f57 f58 ?v1)) false)) false))))
(assert (forall ((?v0 S5)) (= (= (f60 (f57 f58 ?v0)) f1) false)))
(assert (= (= (f60 f44) f1) true))
(assert (forall ((?v0 S31)) (= (= (f60 ?v0) f1) (= ?v0 f44))))
(assert (forall ((?v0 S10)) (not (= f61 (f47 f48 ?v0)))))
(assert (forall ((?v0 S10)) (not (= f61 (f47 f48 ?v0)))))
(assert (forall ((?v0 S10)) (not (= (f47 f48 ?v0) f61))))
(assert (forall ((?v0 S10)) (not (= (f47 f48 ?v0) f61))))
(assert (forall ((?v0 S10)) (=> (= f61 (f47 f48 ?v0)) false)))
(assert (forall ((?v0 S10)) (=> (= (f47 f48 ?v0) f61) false)))
(assert (forall ((?v0 S34)) (= (f62 f63 (f49 f50 ?v0)) f61)))
(assert (forall ((?v0 S13)) (= (f62 f63 (f37 f38 ?v0)) f61)))
(assert (forall ((?v0 S10)) (=> (=> (= ?v0 f61) false) (=> (forall ((?v1 S10)) (=> (= ?v0 (f47 f48 ?v1)) false)) false))))
(assert (forall ((?v0 S10)) (=> (not (= ?v0 f61)) (exists ((?v1 S10)) (= ?v0 (f47 f48 ?v1))))))
(assert (forall ((?v0 S40) (?v1 S10)) (=> (= (f64 ?v0 f61) f1) (=> (forall ((?v2 S10)) (=> (= (f64 ?v0 ?v2) f1) (= (f64 ?v0 (f47 f48 ?v2)) f1))) (= (f64 ?v0 ?v1) f1)))))
(assert (forall ((?v0 S40) (?v1 S10)) (=> (= (f64 ?v0 ?v1) f1) (=> (forall ((?v2 S10)) (=> (= (f64 ?v0 (f47 f48 ?v2)) f1) (= (f64 ?v0 ?v2) f1))) (= (f64 ?v0 f61) f1)))))
(assert (forall ((?v0 S34)) (= (f62 f65 (f49 f50 ?v0)) f61)))
(assert (forall ((?v0 S13)) (= (f62 f65 (f37 f38 ?v0)) f61)))
(assert (= (f66 f67 f9) f61))
(assert (forall ((?v0 S17) (?v1 S14)) (= (f66 f67 (f24 (f25 f26 ?v0) ?v1)) f61)))
(assert (forall ((?v0 S20)) (= (f66 f67 (f35 f36 ?v0)) f61)))
(assert (forall ((?v0 S17) (?v1 S20) (?v2 S14)) (= (f66 f67 (f24 (f27 (f28 f29 ?v0) ?v1) ?v2)) f61)))
(assert (forall ((?v0 S5) (?v1 S5)) (= (f66 f67 (f10 (f11 f12 ?v0) ?v1)) (f47 (f68 f69 (f47 (f68 f69 (f66 f67 ?v0)) (f66 f67 ?v1))) (f47 f48 f61)))))
(assert (forall ((?v0 S13) (?v1 S14) (?v2 S5)) (= (f66 f67 (f10 (f21 (f22 f23 ?v0) ?v1) ?v2)) (f47 (f68 f69 (f66 f67 ?v2)) (f47 f48 f61)))))
(assert (forall ((?v0 S10) (?v1 S10) (?v2 S10)) (= (= (f47 (f68 f69 ?v0) ?v1) (f47 (f68 f69 ?v2) ?v1)) (= ?v0 ?v2))))
(assert (forall ((?v0 S10) (?v1 S10) (?v2 S10)) (let ((?v_0 (f68 f69 ?v0))) (= (= (f47 ?v_0 ?v1) (f47 ?v_0 ?v2)) (= ?v1 ?v2)))))
(assert (forall ((?v0 S10) (?v1 S10) (?v2 S10)) (let ((?v_0 (f68 f69 ?v0))) (= (f47 (f68 f69 (f47 ?v_0 ?v1)) ?v2) (f47 ?v_0 (f47 (f68 f69 ?v1) ?v2))))))
(assert (forall ((?v0 S10) (?v1 S10) (?v2 S10)) (let ((?v_1 (f68 f69 ?v0)) (?v_0 (f68 f69 ?v1))) (= (f47 ?v_1 (f47 ?v_0 ?v2)) (f47 ?v_0 (f47 ?v_1 ?v2))))))
(assert (forall ((?v0 S10) (?v1 S10)) (= (f47 (f68 f69 ?v0) ?v1) (f47 (f68 f69 ?v1) ?v0))))
(assert (forall ((?v0 S10) (?v1 S10)) (let ((?v_0 (f68 f69 ?v0))) (= (f47 ?v_0 (f47 f48 ?v1)) (f47 f48 (f47 ?v_0 ?v1))))))
(assert (forall ((?v0 S10) (?v1 S10)) (= (f47 (f68 f69 (f47 f48 ?v0)) ?v1) (f47 f48 (f47 (f68 f69 ?v0) ?v1)))))
(assert (forall ((?v0 S10) (?v1 S10)) (= (f47 (f68 f69 (f47 f48 ?v0)) ?v1) (f47 (f68 f69 ?v0) (f47 f48 ?v1)))))
(assert (forall ((?v0 S10) (?v1 S10)) (let ((?v_0 (f47 f48 f61))) (= (= (f47 (f68 f69 ?v0) ?v1) ?v_0) (or (and (= ?v0 ?v_0) (= ?v1 f61)) (and (= ?v0 f61) (= ?v1 ?v_0)))))))
(assert (forall ((?v0 S10) (?v1 S10)) (let ((?v_0 (f47 f48 f61))) (= (= ?v_0 (f47 (f68 f69 ?v0) ?v1)) (or (and (= ?v0 ?v_0) (= ?v1 f61)) (and (= ?v0 f61) (= ?v1 ?v_0)))))))
(assert (forall ((?v0 S10)) (= (f47 (f68 f69 f61) ?v0) ?v0)))
(assert (forall ((?v0 S10)) (= (f47 (f68 f69 ?v0) f61) ?v0)))
(assert (forall ((?v0 S10) (?v1 S10)) (= (= (f47 (f68 f69 ?v0) ?v1) f61) (and (= ?v0 f61) (= ?v1 f61)))))
(assert (forall ((?v0 S10) (?v1 S10)) (=> (= (f47 (f68 f69 ?v0) ?v1) ?v0) (= ?v1 f61))))
(assert (forall ((?v0 S3) (?v1 S5)) (= (f66 f67 (f10 (f15 f16 ?v0) ?v1)) (f47 (f68 f69 (f66 f67 ?v1)) (f47 f48 f61)))))
(assert (forall ((?v0 S3) (?v1 S5) (?v2 S5)) (= (f66 f67 (f10 (f11 (f13 f14 ?v0) ?v1) ?v2)) (f47 (f68 f69 (f47 (f68 f69 (f66 f67 ?v1)) (f66 f67 ?v2))) (f47 f48 f61)))))
(assert (forall ((?v0 S41) (?v1 S5)) (= (f70 (f71 f72 ?v0) (f57 f58 ?v1)) (f47 (f68 f69 (f66 ?v0 ?v1)) (f47 f48 f61)))))
(assert (forall ((?v0 S45)) (= (= (f73 (f74 f75 ?v0) ?v0) f76) (= ?v0 f76))))
(assert (forall ((?v0 S41)) (= (f70 (f71 f72 ?v0) f44) f61)))
(assert (forall ((?v0 S10)) (= (f47 f77 (f47 f48 ?v0)) (f47 (f68 f69 (f47 f77 ?v0)) (f47 f48 f61)))))
(assert (forall ((?v0 S10)) (= (f47 f78 (f47 f48 ?v0)) (f47 (f68 f69 (f47 f78 ?v0)) (f47 f48 f61)))))
(assert (forall ((?v0 S10)) (= (f47 f78 ?v0) ?v0)))
(assert (= (f47 f78 f61) f61))
(assert (= (f47 f77 f61) f61))
(assert (forall ((?v0 S5)) (= (f70 f79 (f57 f58 ?v0)) f61)))
(assert (= (f70 f79 f44) f61))
(assert (forall ((?v0 S45)) (= (f73 (f74 f75 f76) ?v0) ?v0)))
(assert (forall ((?v0 S10)) (= (f47 (f68 f69 f61) ?v0) ?v0)))
(assert (forall ((?v0 S45)) (= (f73 (f74 f75 f76) ?v0) ?v0)))
(assert (forall ((?v0 S10)) (= (f47 (f68 f69 f61) ?v0) ?v0)))
(assert (forall ((?v0 S45)) (= (= f76 ?v0) (= ?v0 f76))))
(assert (forall ((?v0 S10)) (= (= f61 ?v0) (= ?v0 f61))))
(assert (forall ((?v0 S45) (?v1 S45)) (= (f73 (f74 f75 ?v0) ?v1) (f73 (f74 f75 ?v1) ?v0))))
(assert (forall ((?v0 S10) (?v1 S10)) (= (f47 (f68 f69 ?v0) ?v1) (f47 (f68 f69 ?v1) ?v0))))
(assert (forall ((?v0 S45) (?v1 S45) (?v2 S45)) (let ((?v_1 (f74 f75 ?v0)) (?v_0 (f74 f75 ?v1))) (= (f73 ?v_1 (f73 ?v_0 ?v2)) (f73 ?v_0 (f73 ?v_1 ?v2))))))
(assert (forall ((?v0 S10) (?v1 S10) (?v2 S10)) (let ((?v_1 (f68 f69 ?v0)) (?v_0 (f68 f69 ?v1))) (= (f47 ?v_1 (f47 ?v_0 ?v2)) (f47 ?v_0 (f47 ?v_1 ?v2))))))
(assert (forall ((?v0 S45) (?v1 S45) (?v2 S45)) (let ((?v_0 (f74 f75 ?v0))) (= (f73 ?v_0 (f73 (f74 f75 ?v1) ?v2)) (f73 (f74 f75 (f73 ?v_0 ?v1)) ?v2)))))
(assert (forall ((?v0 S10) (?v1 S10) (?v2 S10)) (let ((?v_0 (f68 f69 ?v0))) (= (f47 ?v_0 (f47 (f68 f69 ?v1) ?v2)) (f47 (f68 f69 (f47 ?v_0 ?v1)) ?v2)))))
(assert (forall ((?v0 S45) (?v1 S45) (?v2 S45)) (let ((?v_0 (f74 f75 ?v0))) (= (f73 (f74 f75 (f73 ?v_0 ?v1)) ?v2) (f73 ?v_0 (f73 (f74 f75 ?v1) ?v2))))))
(assert (forall ((?v0 S10) (?v1 S10) (?v2 S10)) (let ((?v_0 (f68 f69 ?v0))) (= (f47 (f68 f69 (f47 ?v_0 ?v1)) ?v2) (f47 ?v_0 (f47 (f68 f69 ?v1) ?v2))))))
(assert (forall ((?v0 S45) (?v1 S45) (?v2 S45)) (let ((?v_0 (f74 f75 ?v0))) (= (f73 (f74 f75 (f73 ?v_0 ?v1)) ?v2) (f73 ?v_0 (f73 (f74 f75 ?v1) ?v2))))))
(assert (forall ((?v0 S10) (?v1 S10) (?v2 S10)) (let ((?v_0 (f68 f69 ?v0))) (= (f47 (f68 f69 (f47 ?v_0 ?v1)) ?v2) (f47 ?v_0 (f47 (f68 f69 ?v1) ?v2))))))
(assert (forall ((?v0 S45) (?v1 S45) (?v2 S45)) (let ((?v_0 (f74 f75 ?v0))) (= (f73 (f74 f75 (f73 ?v_0 ?v1)) ?v2) (f73 (f74 f75 (f73 ?v_0 ?v2)) ?v1)))))
(assert (forall ((?v0 S10) (?v1 S10) (?v2 S10)) (let ((?v_0 (f68 f69 ?v0))) (= (f47 (f68 f69 (f47 ?v_0 ?v1)) ?v2) (f47 (f68 f69 (f47 ?v_0 ?v2)) ?v1)))))
(assert (forall ((?v0 S45) (?v1 S45) (?v2 S45)) (let ((?v_0 (f74 f75 ?v0))) (= (= (f73 ?v_0 ?v1) (f73 ?v_0 ?v2)) (= ?v1 ?v2)))))
(assert (forall ((?v0 S10) (?v1 S10) (?v2 S10)) (let ((?v_0 (f68 f69 ?v0))) (= (= (f47 ?v_0 ?v1) (f47 ?v_0 ?v2)) (= ?v1 ?v2)))))
(assert (forall ((?v0 S45) (?v1 S45) (?v2 S45)) (= (= (f73 (f74 f75 ?v0) ?v1) (f73 (f74 f75 ?v2) ?v1)) (= ?v0 ?v2))))
(assert (forall ((?v0 S10) (?v1 S10) (?v2 S10)) (= (= (f47 (f68 f69 ?v0) ?v1) (f47 (f68 f69 ?v2) ?v1)) (= ?v0 ?v2))))
(assert (forall ((?v0 S45) (?v1 S45) (?v2 S45) (?v3 S45)) (let ((?v_0 (f74 f75 ?v0))) (= (f73 (f74 f75 (f73 ?v_0 ?v1)) (f73 (f74 f75 ?v2) ?v3)) (f73 (f74 f75 (f73 ?v_0 ?v2)) (f73 (f74 f75 ?v1) ?v3))))))
(assert (forall ((?v0 S10) (?v1 S10) (?v2 S10) (?v3 S10)) (let ((?v_0 (f68 f69 ?v0))) (= (f47 (f68 f69 (f47 ?v_0 ?v1)) (f47 (f68 f69 ?v2) ?v3)) (f47 (f68 f69 (f47 ?v_0 ?v2)) (f47 (f68 f69 ?v1) ?v3))))))
(assert (forall ((?v0 S45) (?v1 S45) (?v2 S45)) (let ((?v_0 (f74 f75 ?v0))) (=> (= (f73 ?v_0 ?v1) (f73 ?v_0 ?v2)) (= ?v1 ?v2)))))
(assert (forall ((?v0 S10) (?v1 S10) (?v2 S10)) (let ((?v_0 (f68 f69 ?v0))) (=> (= (f47 ?v_0 ?v1) (f47 ?v_0 ?v2)) (= ?v1 ?v2)))))
(assert (forall ((?v0 S45) (?v1 S45) (?v2 S45)) (let ((?v_0 (f74 f75 ?v0))) (=> (= (f73 ?v_0 ?v1) (f73 ?v_0 ?v2)) (= ?v1 ?v2)))))
(assert (forall ((?v0 S10) (?v1 S10) (?v2 S10)) (let ((?v_0 (f68 f69 ?v0))) (=> (= (f47 ?v_0 ?v1) (f47 ?v_0 ?v2)) (= ?v1 ?v2)))))
(assert (forall ((?v0 S45) (?v1 S45) (?v2 S45)) (=> (= (f73 (f74 f75 ?v0) ?v1) (f73 (f74 f75 ?v2) ?v1)) (= ?v0 ?v2))))
(assert (forall ((?v0 S10) (?v1 S10) (?v2 S10)) (=> (= (f47 (f68 f69 ?v0) ?v1) (f47 (f68 f69 ?v2) ?v1)) (= ?v0 ?v2))))
(assert (forall ((?v0 S45) (?v1 S45)) (= (= ?v0 (f73 (f74 f75 ?v0) ?v1)) (= ?v1 f76))))
(assert (forall ((?v0 S10) (?v1 S10)) (= (= ?v0 (f47 (f68 f69 ?v0) ?v1)) (= ?v1 f61))))
(assert (forall ((?v0 S45)) (= (f73 (f74 f75 ?v0) f76) ?v0)))
(assert (forall ((?v0 S10)) (= (f47 (f68 f69 ?v0) f61) ?v0)))
(assert (forall ((?v0 S45)) (= (f73 (f74 f75 ?v0) f76) ?v0)))
(assert (forall ((?v0 S10)) (= (f47 (f68 f69 ?v0) f61) ?v0)))
(assert (forall ((?v0 S45)) (= (f73 (f74 f75 ?v0) f76) ?v0)))
(assert (forall ((?v0 S10)) (= (f47 (f68 f69 ?v0) f61) ?v0)))
(assert (forall ((?v0 S45)) (= (= f76 (f73 (f74 f75 ?v0) ?v0)) (= ?v0 f76))))
(assert (forall ((?v0 S45)) (= (f73 (f74 f75 f76) ?v0) ?v0)))
(assert (forall ((?v0 S10)) (= (f47 (f68 f69 f61) ?v0) ?v0)))
(assert (forall ((?v0 S13) (?v1 S14) (?v2 S5)) (= (f66 f80 (f10 (f21 (f22 f23 ?v0) ?v1) ?v2)) (f47 (f68 f69 (f66 f80 ?v2)) (f47 f48 f61)))))
(assert (forall ((?v0 S5) (?v1 S5)) (= (f66 f80 (f10 (f11 f12 ?v0) ?v1)) (f47 (f68 f69 (f47 (f68 f69 (f66 f80 ?v0)) (f66 f80 ?v1))) (f47 f48 f61)))))
(check-sat)
(exit)
